10
1 0 53
2 0 52
2 1 12
3 0 66
3 1 87
3 2 73
4 0 4
4 1 85
4 2 62
4 3 6
5 0 22
5 1 68
5 2 63
5 3 24
5 4 84
6 0 85
6 1 70
6 2 11
6 3 83
6 4 92
6 5 43
7 0 60
7 1 29
7 2 79
7 3 76
7 4 34
7 5 96
7 6 56
8 0 19
8 1 53
8 2 19
8 3 2
8 4 83
8 5 19
8 6 35
8 7 35
9 0 63
9 1 87
9 2 67
9 3 5
9 4 59
9 5 47
9 6 76
9 7 2
9 8 81
